(declare-fun strlen_92_64 () (_ BitVec 64))
(declare-fun args_1_8 () (_ BitVec 8))
(assert (and (= #b00000000000000000000000000000000000000000000000000000000000000
        ((_ extract 63 2) (bvadd #x0000000000000001 strlen_92_64)))
     (= (ite (= #x00 args_1_8) #x07fffffffffeffd2 #x07fffffffffeffd3)
        (bvadd #x07fffffffffeffd2 strlen_92_64))
     (bvule (bvadd #b01 ((_ extract 1 0) strlen_92_64)) #b10)))
(define-fun goal () (_ BitVec 64) (bvadd strlen_92_64 #x0000000000000001)) 
(minimize goal)
(check-sat)